&bands    
    outdir = '.',
    prefix='pwscf', 
    filband='Cu.band',
    lsym=.true. 
/ 
