k-points for bandstructure   G-X-W-L-G-K-X    
 40
line
reciprocal
  0.00000  0.00000  0.00000    1
  0.00000  0.50000  0.50000    1

  0.00000  0.50000  0.50000    1
  0.25000  0.75000  0.50000    1
 
  0.25000  0.75000  0.50000    1
  0.50000  0.50000  0.50000    1

  0.50000  0.50000  0.50000    1
  0.00000  0.00000  0.00000    1

  0.00000  0.00000  0.00000    1
  0.37500  0.75000  0.37500    1

  0.37500  0.75000  0.37500    1
  0.00000  0.50000  0.50000    1 
