Automatic Mesh
  0
Monkhorst-pack
  11  11  11 
