Cu:
3.664
0.5 0.5 0.0
0.0 0.5 0.5
0.5 0.0 0.5
1
cartesian
0.00  0.00   0.00
