 #  ----------------------------------------------------------#
 #                     Jacques R. Eone                        #
 #             Abinit sample input file (Cu FCC)              #
 #                        May - 2021                          #
 #              BandPath    ---> G-X-W-L-G-K-X                #  
 #  ----------------------------------------------------------#

 ndtset 2
 nsppol2   1
 nstep    30
 
 
 toldfe  1.0d-4
 acell   3*6.80276
 ecut    800 eV
 
 
 natom   1
 ntypat  1
 rprim    0.500   0.500   0.000
          0.000   0.500   0.500
          0.500   0.000   0.500
 typat   1  
 xred    0.000  0.000  0.000
 
 ngkpt   11 11 11
 nshiftk 1
 shiftk  0.0 0.0 0.0
 occopt  3
 tsmear  0.01
 
 Chksymbreak  0
 ixc     11
 nband   20
 znucl  29

# Bandstructure 

iscf2    -2
getden2  -1
kptopt2  -6  
ndivsm2  30     

kptbounds2  0.0    0.0    0.0   # G
            0.0    0.5    0.5   # X
            0.25   0.75   0.5   # W
            0.5    0.5    0.5   # L
            0.0    0.0    0.0   # G
            0.375  0.75   0.375 # K 
            0.0    0.5    0.5   # X

tolwfr2  1.0d-8
enunit2  1
